\ Model sub
\ LP format - for model browsing. Use MPS format to capture full model detail.
Minimize
  29 x[0] + 19 x[1] + 7 x[2] + 21 x[3]
Subject To
 c[0]: - 16 x[0] + 8 x[1] - 12 x[2] + 11 x[3] = 3
 c[1]: 11 x[0] - 20 x[1] - 10 x[2] + 13 x[3] = 3
Bounds
End
